NAME 
ROWS
 N  OBJ
 G  R0      
 G  R1      
 G  R2      
 G  R3      
 G  R4      
 G  R5      
 G  R6      
 G  R7      
 G  R8      
 G  R9      
 G  R10     
 G  R11     
 G  R12     
 G  R13     
 G  R14     
 G  R15     
 G  R16     
 G  R17     
 G  R18     
 G  R19     
 G  R20     
 G  R21     
 G  R22     
 G  R23     
 G  R24     
 G  R25     
 G  R26     
 G  R27     
 G  R28     
 G  R29     
 G  R30     
 G  R31     
COLUMNS
    x0        OBJ       1
    x0        R0        1
    x0        R3        1
    x0        R5        1
    x0        R6        1
    x0        R9        1
    x0        R10       1
    x0        R12       1
    x0        R17       1
    x0        R18       1
    x0        R20       1
    x0        R24       1
    x1        OBJ       1
    x1        R1        1
    x1        R2        1
    x1        R4        1
    x1        R7        1
    x1        R8        1
    x1        R11       1
    x1        R13       1
    x1        R16       1
    x1        R19       1
    x1        R21       1
    x1        R25       1
    x2        OBJ       1
    x2        R1        1
    x2        R2        1
    x2        R4        1
    x2        R7        1
    x2        R8        1
    x2        R11       1
    x2        R14       1
    x2        R16       1
    x2        R19       1
    x2        R22       1
    x2        R26       1
    x3        OBJ       1
    x3        R0        1
    x3        R3        1
    x3        R5        1
    x3        R6        1
    x3        R9        1
    x3        R10       1
    x3        R15       1
    x3        R17       1
    x3        R18       1
    x3        R23       1
    x3        R27       1
    x4        OBJ       1
    x4        R1        1
    x4        R2        1
    x4        R4        1
    x4        R7        1
    x4        R8        1
    x4        R13       1
    x4        R14       1
    x4        R16       1
    x4        R21       1
    x4        R22       1
    x4        R28       1
    x5        OBJ       1
    x5        R0        1
    x5        R3        1
    x5        R5        1
    x5        R6        1
    x5        R9        1
    x5        R12       1
    x5        R15       1
    x5        R17       1
    x5        R20       1
    x5        R23       1
    x5        R29       1
    x6        OBJ       1
    x6        R0        1
    x6        R3        1
    x6        R5        1
    x6        R6        1
    x6        R10       1
    x6        R12       1
    x6        R15       1
    x6        R18       1
    x6        R20       1
    x6        R23       1
    x6        R30       1
    x7        OBJ       1
    x7        R1        1
    x7        R2        1
    x7        R4        1
    x7        R7        1
    x7        R11       1
    x7        R13       1
    x7        R14       1
    x7        R19       1
    x7        R21       1
    x7        R22       1
    x7        R31       1
    x8        OBJ       1
    x8        R1        1
    x8        R2        1
    x8        R4        1
    x8        R8        1
    x8        R11       1
    x8        R13       1
    x8        R14       1
    x8        R16       1
    x8        R25       1
    x8        R26       1
    x8        R28       1
    x9        OBJ       1
    x9        R0        1
    x9        R3        1
    x9        R5        1
    x9        R9        1
    x9        R10       1
    x9        R12       1
    x9        R15       1
    x9        R17       1
    x9        R24       1
    x9        R27       1
    x9        R29       1
    x10       OBJ       1
    x10       R0        1
    x10       R3        1
    x10       R6        1
    x10       R9        1
    x10       R10       1
    x10       R12       1
    x10       R15       1
    x10       R18       1
    x10       R24       1
    x10       R27       1
    x10       R30       1
    x11       OBJ       1
    x11       R1        1
    x11       R2        1
    x11       R7        1
    x11       R8        1
    x11       R11       1
    x11       R13       1
    x11       R14       1
    x11       R19       1
    x11       R25       1
    x11       R26       1
    x11       R31       1
    x12       OBJ       1
    x12       R0        1
    x12       R5        1
    x12       R6        1
    x12       R9        1
    x12       R10       1
    x12       R12       1
    x12       R15       1
    x12       R20       1
    x12       R24       1
    x12       R29       1
    x12       R30       1
    x13       OBJ       1
    x13       R1        1
    x13       R4        1
    x13       R7        1
    x13       R8        1
    x13       R11       1
    x13       R13       1
    x13       R14       1
    x13       R21       1
    x13       R25       1
    x13       R28       1
    x13       R31       1
    x14       OBJ       1
    x14       R2        1
    x14       R4        1
    x14       R7        1
    x14       R8        1
    x14       R11       1
    x14       R13       1
    x14       R14       1
    x14       R22       1
    x14       R26       1
    x14       R28       1
    x14       R31       1
    x15       OBJ       1
    x15       R3        1
    x15       R5        1
    x15       R6        1
    x15       R9        1
    x15       R10       1
    x15       R12       1
    x15       R15       1
    x15       R23       1
    x15       R27       1
    x15       R29       1
    x15       R30       1
    x16       OBJ       1
    x16       R1        1
    x16       R2        1
    x16       R4        1
    x16       R8        1
    x16       R16       1
    x16       R19       1
    x16       R21       1
    x16       R22       1
    x16       R25       1
    x16       R26       1
    x16       R28       1
    x17       OBJ       1
    x17       R0        1
    x17       R3        1
    x17       R5        1
    x17       R9        1
    x17       R17       1
    x17       R18       1
    x17       R20       1
    x17       R23       1
    x17       R24       1
    x17       R27       1
    x17       R29       1
    x18       OBJ       1
    x18       R0        1
    x18       R3        1
    x18       R6        1
    x18       R10       1
    x18       R17       1
    x18       R18       1
    x18       R20       1
    x18       R23       1
    x18       R24       1
    x18       R27       1
    x18       R30       1
    x19       OBJ       1
    x19       R1        1
    x19       R2        1
    x19       R7        1
    x19       R11       1
    x19       R16       1
    x19       R19       1
    x19       R21       1
    x19       R22       1
    x19       R25       1
    x19       R26       1
    x19       R31       1
    x20       OBJ       1
    x20       R0        1
    x20       R5        1
    x20       R6        1
    x20       R12       1
    x20       R17       1
    x20       R18       1
    x20       R20       1
    x20       R23       1
    x20       R24       1
    x20       R29       1
    x20       R30       1
    x21       OBJ       1
    x21       R1        1
    x21       R4        1
    x21       R7        1
    x21       R13       1
    x21       R16       1
    x21       R19       1
    x21       R21       1
    x21       R22       1
    x21       R25       1
    x21       R28       1
    x21       R31       1
    x22       OBJ       1
    x22       R2        1
    x22       R4        1
    x22       R7        1
    x22       R14       1
    x22       R16       1
    x22       R19       1
    x22       R21       1
    x22       R22       1
    x22       R26       1
    x22       R28       1
    x22       R31       1
    x23       OBJ       1
    x23       R3        1
    x23       R5        1
    x23       R6        1
    x23       R15       1
    x23       R17       1
    x23       R18       1
    x23       R20       1
    x23       R23       1
    x23       R27       1
    x23       R29       1
    x23       R30       1
    x24       OBJ       1
    x24       R0        1
    x24       R9        1
    x24       R10       1
    x24       R12       1
    x24       R17       1
    x24       R18       1
    x24       R20       1
    x24       R24       1
    x24       R27       1
    x24       R29       1
    x24       R30       1
    x25       OBJ       1
    x25       R1        1
    x25       R8        1
    x25       R11       1
    x25       R13       1
    x25       R16       1
    x25       R19       1
    x25       R21       1
    x25       R25       1
    x25       R26       1
    x25       R28       1
    x25       R31       1
    x26       OBJ       1
    x26       R2        1
    x26       R8        1
    x26       R11       1
    x26       R14       1
    x26       R16       1
    x26       R19       1
    x26       R22       1
    x26       R25       1
    x26       R26       1
    x26       R28       1
    x26       R31       1
    x27       OBJ       1
    x27       R3        1
    x27       R9        1
    x27       R10       1
    x27       R15       1
    x27       R17       1
    x27       R18       1
    x27       R23       1
    x27       R24       1
    x27       R27       1
    x27       R29       1
    x27       R30       1
    x28       OBJ       1
    x28       R4        1
    x28       R8        1
    x28       R13       1
    x28       R14       1
    x28       R16       1
    x28       R21       1
    x28       R22       1
    x28       R25       1
    x28       R26       1
    x28       R28       1
    x28       R31       1
    x29       OBJ       1
    x29       R5        1
    x29       R9        1
    x29       R12       1
    x29       R15       1
    x29       R17       1
    x29       R20       1
    x29       R23       1
    x29       R24       1
    x29       R27       1
    x29       R29       1
    x29       R30       1
    x30       OBJ       1
    x30       R6        1
    x30       R10       1
    x30       R12       1
    x30       R15       1
    x30       R18       1
    x30       R20       1
    x30       R23       1
    x30       R24       1
    x30       R27       1
    x30       R29       1
    x30       R30       1
    x31       OBJ       1
    x31       R7        1
    x31       R11       1
    x31       R13       1
    x31       R14       1
    x31       R19       1
    x31       R21       1
    x31       R22       1
    x31       R25       1
    x31       R26       1
    x31       R28       1
    x31       R31       1
RHS
    RHS1      R0        1
    RHS1      R1        1
    RHS1      R2        1
    RHS1      R3        1
    RHS1      R4        1
    RHS1      R5        1
    RHS1      R6        1
    RHS1      R7        1
    RHS1      R8        1
    RHS1      R9        1
    RHS1      R10       1
    RHS1      R11       1
    RHS1      R12       1
    RHS1      R13       1
    RHS1      R14       1
    RHS1      R15       1
    RHS1      R16       1
    RHS1      R17       1
    RHS1      R18       1
    RHS1      R19       1
    RHS1      R20       1
    RHS1      R21       1
    RHS1      R22       1
    RHS1      R23       1
    RHS1      R24       1
    RHS1      R25       1
    RHS1      R26       1
    RHS1      R27       1
    RHS1      R28       1
    RHS1      R29       1
    RHS1      R30       1
    RHS1      R31       1
BOUNDS
 UP BND1      x0        1
 UP BND1      x1        1
 UP BND1      x2        1
 UP BND1      x3        1
 UP BND1      x4        1
 UP BND1      x5        1
 UP BND1      x6        1
 UP BND1      x7        1
 UP BND1      x8        1
 UP BND1      x9        1
 UP BND1      x10       1
 UP BND1      x11       1
 UP BND1      x12       1
 UP BND1      x13       1
 UP BND1      x14       1
 UP BND1      x15       1
 UP BND1      x16       1
 UP BND1      x17       1
 UP BND1      x18       1
 UP BND1      x19       1
 UP BND1      x20       1
 UP BND1      x21       1
 UP BND1      x22       1
 UP BND1      x23       1
 UP BND1      x24       1
 UP BND1      x25       1
 UP BND1      x26       1
 UP BND1      x27       1
 UP BND1      x28       1
 UP BND1      x29       1
 UP BND1      x30       1
 UP BND1      x31       1
ENDATA
